0000000000000000
0011111111100000
0000000000110000
0000000000110000
0000000000110000
0001111000110000
0001111000110000
0001111000110000
0000000000110000
0000000000110000
0000000000110000
0011111111100000
0011111111100000
0000000000000000
0000000000000000
0000000000000000